(set-logic ALL)
(set-option :produce-models true)
(declare-sort BoundSet 0)
(declare-sort UnboundSet 0)
(declare-fun a () BoundSet)
(declare-fun b () UnboundSet)
(declare-fun IsPutting (BoundSet BoundSet) Bool)
(declare-fun IsUnder (UnboundSet) Bool)
(assert (not (=> (exists ((c BoundSet)) (and (IsPutting a c) (IsUnder b))) (exists ((d BoundSet)) (exists ((a BoundSet)) (and (IsPutting a d) (IsUnder b)))))))
(check-sat)
(get-model)